# MARTINI force field 
# The bead id and its martini label are as follows
# 1 C5
# 2 TN1a
# 3 P1
pair_style lj/gromacs 9.0 12.0
pair_coeff 1 1 0.810229 4.700000 9.0 12.0
pair_coeff 1 2 0.552103 3.950000 9.0 12.0
pair_coeff 1 3 0.733748 4.700000 9.0 12.0
pair_coeff 2 2 0.360899 3.400000 9.0 12.0
pair_coeff 2 3 0.552103 3.950000 9.0 12.0
pair_coeff 3 3 0.927342 4.700000 9.0 12.0
